% seed = 0

mint = 12;
% maxt = 59;

nActs = 22;
dur = [0,1,4,3,1,1,5,5,1,2,4,4,3,2,4,2,5,3,2,3,4,0];

nSkills = 3;
sreq = [| 0,0,0,
	| 1,0,0,
	| 1,0,1,
	| 1,1,0,
	| 0,0,1,
	| 1,0,0,
	| 1,0,0,
	| 1,0,1,
	| 0,0,1,
	| 1,0,0,
	| 0,0,1,
	| 1,0,0,
	| 0,1,0,
	| 1,0,1,
	| 0,1,0,
	| 0,1,0,
	| 0,1,0,
	| 1,1,0,
	| 0,1,0,
	| 1,0,0,
	| 0,1,0,
	| 0,0,0, |];

% SumOfsreq = 25;

nResources = 3;
mastery = [| true,false,false,
	| true,false,true,
	| false,true,false, |];

nPrecs = 54;
pred = [1,1,1,1,1,1,1,1,1,1,1,1,1,1,1,1,1,1,1,1,2,3,4,5,5,6,6,6,7,7,8,8,8,8,9,9,9,10,11,11,11,12,13,13,14,15,16,16,17,17,18,19,20,21];
succ = [2,3,4,5,6,7,8,9,10,11,12,13,14,15,16,17,18,19,20,21,22,22,22,19,22,11,20,22,13,22,9,17,19,22,18,19,22,22,12,22,16,22,22,16,22,22,19,22,19,22,22,22,22,22];

nUnrels = 168;
unpred = [2,2,2,2,2,2,2,2,2,2,2,2,2,2,2,2,2,2,2,3,3,3,3,3,3,3,3,3,3,3,3,3,3,3,3,3,3,4,4,4,4,4,4,4,4,4,4,4,4,4,4,4,4,4,5,5,5,5,5,5,5,5,5,5,5,5,5,5,5,6,6,6,6,6,6,6,6,6,6,7,7,7,7,7,7,7,7,7,7,7,8,8,8,8,8,8,8,8,8,9,9,9,9,9,9,9,9,9,9,10,10,10,10,10,10,10,10,10,10,10,11,11,11,11,11,11,11,12,12,12,12,12,12,12,12,12,13,13,13,13,13,13,14,14,14,14,14,14,14,15,15,15,15,15,15,16,16,16,16,17,17,17,18,18,18,19,19,20];
unsucc = [3,4,5,6,7,8,9,10,11,12,13,14,15,16,17,18,19,20,21,4,5,6,7,8,9,10,11,12,13,14,15,16,17,18,19,20,21,5,6,7,8,9,10,11,12,13,14,15,16,17,18,19,20,21,6,7,8,9,10,11,12,13,14,15,16,17,18,20,21,7,8,9,10,13,14,15,17,18,21,8,9,10,11,12,14,15,17,18,20,21,10,11,12,13,14,15,16,20,21,10,11,12,13,14,15,16,17,20,21,11,12,13,14,15,16,17,18,19,20,21,13,14,15,17,18,20,21,13,14,15,16,17,18,19,20,21,14,15,17,18,20,21,15,16,17,18,19,20,21,16,17,18,19,20,21,17,18,20,21,18,20,21,19,20,21,20,21,21];

USEFUL_RES = [{},
	{1,2},
	{1,2},
	{1,2,3},
	{2},
	{1,2},
	{1,2},
	{1,2},
	{2},
	{1,2},
	{2},
	{1,2},
	{3},
	{1,2},
	{3},
	{3},
	{3},
	{1,2,3},
	{3},
	{1,2},
	{3},
	{}];

POTENTIAL_ACT = [{2,3,4,6,7,8,10,12,14,18,20},
	{2,3,4,5,6,7,8,9,10,11,12,14,18,20},
	{4,13,15,16,17,18,19,21}];
